33D32945 STP File, STP Format Version 1.0

SECTION Comments
Name "inst10x3_06"
Creator "Kurt Anstreicher & Marcia Fampa"
Problem "Euclidean Steiner Tree Problem"
Remark "Converted automatically"
END

SECTION Graph
Nodes 10
END

SECTION Coordinates
DDD 1 6.27314788083997 6.99080137745337 3.97183953792615 
DDD 2 4.13628895338180 6.55212946355670 8.37585098831857 
DDD 3 3.71608032242662 4.25253158482651 5.94663371452568 
DDD 4 5.65738572085715 7.16542397250049 5.11311448168898 
DDD 5 7.76401211933492 4.89345475898499 1.85904451225223 
DDD 6 7.00635405146117 9.82708801906261 8.06637749288743 
DDD 7 7.03567655003597 4.84963719324568 1.14612821170640 
DDD 8 6.64855567140206 3.65373891689121 1.40044456534731 
DDD 9 5.66772800303106 8.23008314290667 6.73948632095360 
DDD 10 9.99447304949401 9.61636407148570 0.58862165455590 
END

EOF
